c Random 3-SAT formula
c Number of variables: 7
c Number of clauses: 25
p cnf 7 25
-2 -5 1 0
4 2 -7 0
-5 4 -3 0
-6 7 4 0
1 3 -2 0
1 4 -6 0
-4 1 3 0
1 6 -5 0
6 -4 -2 0
-6 -3 -4 0
-2 -3 4 0
3 -6 -7 0
5 2 -3 0
3 6 7 0
5 2 -6 0
2 3 -6 0
5 -2 -7 0
-4 2 -5 0
-4 1 2 0
-7 -6 3 0
6 -1 -7 0
7 1 -2 0
5 2 6 0
-7 2 -4 0
-1 5 3 0
